(set-info :smt-lib-version 2.6)
(set-logic QF_UFLRA)
(set-info :source |
MathSat group

|)
(set-info :category "random")
(set-info :status unsat)
(declare-fun x0 () Real)
(declare-fun x1 () Real)
(declare-fun x2 () Real)
(declare-fun x3 () Real)
(declare-fun x4 () Real)
(declare-fun x5 () Real)
(declare-fun x6 () Real)
(declare-fun x7 () Real)
(declare-fun x8 () Real)
(declare-fun x9 () Real)
(declare-fun x10 () Real)
(declare-fun x11 () Real)
(declare-fun x12 () Real)
(declare-fun x13 () Real)
(declare-fun x14 () Real)
(declare-fun x15 () Real)
(declare-fun x16 () Real)
(declare-fun x17 () Real)
(declare-fun x18 () Real)
(declare-fun x19 () Real)
(declare-fun x20 () Real)
(declare-fun x21 () Real)
(declare-fun x22 () Real)
(declare-fun x23 () Real)
(declare-fun x24 () Real)
(declare-fun x25 () Real)
(declare-fun x26 () Real)
(declare-fun x27 () Real)
(declare-fun x28 () Real)
(declare-fun x29 () Real)
(declare-fun f0_1 (Real) Real)
(declare-fun f0_2 (Real Real) Real)
(declare-fun f0_3 (Real Real Real) Real)
(declare-fun f0_4 (Real Real Real Real) Real)
(declare-fun P0 () Bool)
(declare-fun P1 () Bool)
(declare-fun P2 () Bool)
(declare-fun P3 () Bool)
(declare-fun P4 () Bool)
(declare-fun P5 () Bool)
(declare-fun P6 () Bool)
(declare-fun P7 () Bool)
(declare-fun P8 () Bool)
(declare-fun P9 () Bool)
(declare-fun P10 () Bool)
(declare-fun P11 () Bool)
(declare-fun P12 () Bool)
(declare-fun P13 () Bool)
(declare-fun P14 () Bool)
(declare-fun P15 () Bool)
(declare-fun P16 () Bool)
(declare-fun P17 () Bool)
(declare-fun P18 () Bool)
(declare-fun P19 () Bool)
(declare-fun P20 () Bool)
(declare-fun P21 () Bool)
(declare-fun P22 () Bool)
(declare-fun P23 () Bool)
(declare-fun P24 () Bool)
(declare-fun P25 () Bool)
(declare-fun P26 () Bool)
(declare-fun P27 () Bool)
(declare-fun P28 () Bool)
(declare-fun P29 () Bool)
(assert (let ((?v_69 (< (- (- (* 41 x29) (* 32 x2)) (* 5 x4)) 0)) (?v_51 (<= (+ (- (* 6 x28) (* 21 x28)) (* 17 x11)) 26)) (?v_97 (<= (- (- (* 34 x8) (* 17 x12)) (* 37 x25)) 20)) (?v_12 (< (+ (- (* 35 x1) (* 34 x26)) (* 25 x21)) 29)) (?v_13 (= x1 x7)) (?v_66 (distinct (f0_1 x13) (f0_1 x5))) (?v_78 (f0_1 x4))) (let ((?v_138 (= x5 ?v_78)) (?v_7 (= (f0_1 x14) (f0_1 x27))) (?v_8 (= (f0_2 x18 x16) (f0_2 x23 x12))) (?v_16 (f0_1 x6))) (let ((?v_35 (distinct x17 ?v_16)) (?v_109 (distinct (f0_2 x24 x8) x14)) (?v_14 (distinct (f0_2 x2 x2) (f0_1 x21))) (?v_77 (distinct (f0_2 x29 x9) x18)) (?v_42 (= ?v_16 x4)) (?v_123 (= (f0_2 x5 x17) (f0_2 x3 x3))) (?v_122 (f0_1 x18))) (let ((?v_100 (distinct x24 ?v_122)) (?v_34 (= x20 (f0_2 x27 x3))) (?v_139 (= (f0_2 x4 x27) (f0_1 x20))) (?v_27 (f0_1 x8))) (let ((?v_11 (= ?v_27 x7)) (?v_98 (= (f0_2 x4 x20) x13)) (?v_37 (f0_1 x22))) (let ((?v_117 (distinct (f0_2 x19 x27) ?v_37)) (?v_44 (distinct x2 ?v_27)) (?v_60 (= (f0_2 x25 x17) (f0_2 x14 x12))) (?v_22 (= (f0_2 x6 x1) (f0_1 x9))) (?v_86 (= (f0_1 x2) x9)) (?v_39 (= x19 (f0_2 x15 x27))) (?v_46 (distinct (f0_1 x16) (f0_2 x6 x16))) (?v_10 (= x24 x6)) (?v_15 (distinct x14 (f0_2 x20 x7))) (?v_25 (= (f0_2 x20 x18) (f0_1 x3))) (?v_56 (distinct (f0_2 x13 x25) x13)) (?v_125 (distinct ?v_122 (f0_2 x7 x4))) (?v_76 (= ?v_78 (f0_2 x26 x20))) (?v_64 (distinct (f0_2 x14 x24) ?v_37))) (let ((?v_3 (not ?v_15)) (?v_1 (not ?v_109)) (?v_30 (not ?v_117)) (?v_79 (not P23)) (?v_111 (not ?v_10)) (?v_6 (not P2)) (?v_85 (not ?v_12)) (?v_31 (not ?v_39)) (?v_62 (not P24)) (?v_47 (not ?v_7)) (?v_65 (not P16)) (?v_132 (not P3)) (?v_20 (not ?v_22)) (?v_41 (not ?v_8)) (?v_152 (not P7)) (?v_52 (not ?v_11)) (?v_105 (not P18)) (?v_36 (not ?v_34)) (?v_29 (not ?v_25)) (?v_63 (not ?v_56)) (?v_92 (not ?v_76)) (?v_50 (not P10)) (?v_23 (not P4)) (?v_120 (not P21)) (?v_95 (not ?v_44)) (?v_74 (not P12)) (?v_99 (not ?v_69)) (?v_72 (not ?v_139)) (?v_118 (not ?v_13)) (?v_134 (not ?v_64)) (?v_70 (not P19)) (?v_80 (not ?v_98)) (?v_141 (not ?v_86)) (?v_55 (not ?v_100)) (?v_58 (not P26)) (?v_67 (not P17)) (?v_68 (not P25)) (?v_107 (not P22)) (?v_90 (not ?v_35)) (?v_148 (not P15)) (?v_150 (not P29)) (?v_113 (not ?v_46)) (?v_89 (not ?v_66)) (?v_124 (not ?v_60)) (?v_128 (not P27)) (?v_129 (not P13)) (?v_115 (not ?v_123)) (?v_104 (not ?v_77)) (?v_101 (not P9)) (?v_106 (not ?v_97)) (?v_108 (not P11)) (?v_131 (not P5)) (?v_110 (not ?v_14)) (?v_119 (not P1)) (?v_145 (not ?v_42)) (?v_133 (not ?v_125)) (?v_127 (not P14)) (?v_130 (not P28)) (?v_135 (not ?v_51)) (?v_137 (not P6)) (?v_151 (not ?v_138)) (?v_147 (not P20)) (?v_149 (not P8)) (?v_2 (< (- (* 31 x25) (* 17 x5)) 1)) (?v_102 (<= (+ (* 38 x27) (* 36 x25) (* 35 x22)) 20)) (?v_17 (<= (- (- (* 10 x11) (* 12 x26)) 0) 27))) (let ((?v_82 (not ?v_17)) (?v_54 (<= (- (* 24 x17) (* 9 x24)) 19))) (let ((?v_126 (not ?v_54)) (?v_19 (not ?v_2)) (?v_84 (< (+ (* 4 x16) (* 21 x11) (* 25 x28)) 28))) (let ((?v_94 (not ?v_84)) (?v_146 (<= (+ (- (* 30 x29) (* 15 x21)) x11) 41))) (let ((?v_61 (not ?v_146)) (?v_116 (not ?v_102)) (?v_0 (< (+ (* (- 31) x24) (* 34 x20) (* 23 x27)) (- 14)))) (let ((?v_49 (not ?v_0)) (?v_4 (< (- (- (* (- 2) x19) (* 31 x22)) (* 21 x1)) (- 27))) (?v_75 (< (- (+ (* (- 14) x3) (* 13 x22)) (* 5 x18)) (- 11)))) (let ((?v_144 (not ?v_75)) (?v_43 (< (- (- (* 42 x14) (* 28 x18)) 0) (- 4)))) (let ((?v_93 (not ?v_43)) (?v_5 (< (+ (* (- 16) x17) (* 35 x14) (* 26 x28)) (- 16))) (?v_32 (< (+ (- (* 42 x28) (* 10 x14)) (* 34 x29)) (- 13))) (?v_24 (< (+ (* 38 x15) (* 2 x23) (* 9 x28)) (- 37))) (?v_21 (<= (+ (* (- 39) x1) (* 25 x18) (* 41 x23)) (- 35)))) (let ((?v_112 (not ?v_5)) (?v_26 (< (- (- (* 40 x11) (* 22 x27)) (* 22 x18)) (- 27))) (?v_18 (< (+ (- (* 33 x28) 0) (* 21 x29)) (- 28))) (?v_33 (<= (+ (- x20 (* 18 x2)) (* 11 x10)) (- 5))) (?v_48 (< (+ (- (* 25 x5) (* 20 x21)) (* 26 x19)) (- 2))) (?v_83 (distinct (- (- x23 (* 13 x1)) (* 4 x18)) (- 24)))) (let ((?v_45 (not ?v_83)) (?v_9 (not (< (+ (- (* (- 19) x12) (* 3 x20)) (* 17 x28)) (- 1)))) (?v_88 (< (- (* 41 x15) (* 33 x1)) (- 4)))) (let ((?v_91 (not ?v_88)) (?v_28 (< (+ (* 29 x13) (* 10 x16)) (- 20)))) (let ((?v_53 (not ?v_28)) (?v_59 (not ?v_32)) (?v_81 (= (- (+ (* (- 18) x15) (* 2 x4)) (* 15 x16)) (- 6)))) (let ((?v_40 (not ?v_81)) (?v_38 (<= (- (+ (* 5 x28) (* 5 x6)) (* 19 x25)) (- 14)))) (let ((?v_136 (not ?v_38)) (?v_71 (<= (- (+ (* (- 28) x4) (* 29 x19)) (* 22 x25)) 27))) (let ((?v_121 (not ?v_71)) (?v_73 (not ?v_48)) (?v_57 (= (+ (- (* (- 33) x9) (* 37 x7)) (* 37 x10)) (- 10))) (?v_87 (not ?v_26)) (?v_96 (not ?v_21)) (?v_103 (not ?v_18))) (let ((?v_142 (not ?v_57)) (?v_114 (not ?v_24)) (?v_140 (not ?v_33)) (?v_143 (not ?v_4))) (and (and (and (and (and (and (and (and (and (and (and (and (and (and (and (and (and (and (and (and (and (and (and (and (and (and (and (and (and (and (and (and (and (and (and (and (and (and (and (and (and (and (and (and (and (and (and (and (and (and (and (and (and (and (and (and (and (and (and (and (and (and (and (and (and (and (and (and (and (and (and (and (and (and (and (and (and (and (and (and (and (and (and (and (and (and (and (and (and (and (and (and (and (and (and (and (and (and (and (and (and (and (and (and (and (and (and (and (and (and (and (and (and (and (and (and (and (and (and (and (and (and (and (and (and (and (and (and (and (and (and (and (and (and (and (and (and (and (and (and (and (and (and (and (and (and (and (and (and (and (and (and (and (and (and (and (and (and (and (and (and (and (and (and (and (and (and (and (and (and (and (and (and (and (and (and (and (and (and (and (and (and (and (and (and (and (and (and (and (and (and (and (and (and (and (and (and (and (and (and (and (and (and (and (and (and (and (and (and (and (and (and (and (and (and (and (and (and (and (and (and (and (and (and (and (and (and (and (and (and (and (and (and (and (and (and (and (and (and (and (and (and (and (and (and (and (and (and (and (and (and (and (and (and (and (and (and (and (and (and (and (and (and (and (and (and (and (and (and (and (and (and (and (and (and (and (and (and (and (and (and (and (and (and (and (and (and (and (and (and (and (and (and (and (and (and (and (and (and (and (and (and (and (and (and (and (and (and (and (and (and (and (and (and (and (and (and (and (and (and (and (and (and (and (and (and (and (and (and (and (and (and (and (and (and (and (and (and (and (and (and (and (and (and (and (and (and (and (and (and (and (and (and (and (and (and (and (and (and (or (or ?v_42 ?v_3) ?v_1) (or (or ?v_2 ?v_49) ?v_7)) (or (or P23 ?v_4) ?v_144)) (or (or ?v_30 ?v_79) ?v_93)) (or (or P29 P14) ?v_11)) (or (or ?v_0 P7) ?v_13)) (or (or ?v_1 ?v_2) ?v_3)) (or (or P27 ?v_5) P1)) (or (or ?v_8 ?v_111) ?v_32)) (or (or ?v_102 ?v_6) ?v_24)) (or (or ?v_85 ?v_21) ?v_4)) (or (or ?v_31 ?v_112) ?v_62)) (or (or ?v_26 P22) P20)) (or (or P18 ?v_6) ?v_14)) (or (or ?v_47 ?v_65) ?v_51)) (or (or ?v_18 ?v_33) ?v_48)) (or (or ?v_45 P27) ?v_132)) (or (or ?v_20 ?v_41) ?v_9)) (or (or ?v_9 ?v_10) ?v_152)) (or (or ?v_52 ?v_105) P17)) (or (or ?v_36 ?v_12) ?v_82)) (or (or ?v_29 ?v_4) ?v_126)) (or (or ?v_13 ?v_91) ?v_63)) (or (or ?v_77 ?v_14) P13)) (or (or ?v_60 ?v_15) ?v_35)) (or (or ?v_92 ?v_50) ?v_17)) (or (or ?v_19 P19) P24)) (or (or ?v_18 ?v_53) ?v_19)) (or (or ?v_20 P22) ?v_94)) (or (or ?v_23 ?v_21) P18)) (or (or ?v_22 ?v_23) ?v_8)) (or (or ?v_24 ?v_120) ?v_15)) (or (or ?v_5 ?v_25) ?v_26)) (or (or ?v_95 ?v_28) P18)) (or (or ?v_10 ?v_29) ?v_30)) (or (or P5 ?v_74) ?v_18)) (or (or ?v_61 ?v_31) P15)) (or (or ?v_99 P29) ?v_59)) (or (or ?v_72 ?v_40) ?v_136)) (or (or ?v_33 ?v_34) ?v_35)) (or (or ?v_36 ?v_121) ?v_118)) (or (or ?v_134 P4) ?v_38)) (or (or ?v_32 ?v_10) ?v_70)) (or (or ?v_80 P29) ?v_39)) (or (or ?v_31 ?v_12) ?v_40)) (or (or P5 ?v_41) ?v_66)) (or (or ?v_46 ?v_42) ?v_7)) (or (or P16 P14) ?v_43)) (or (or P26 ?v_29) ?v_44)) (or (or ?v_45 ?v_141) ?v_46)) (or (or ?v_55 P21) ?v_47)) (or (or ?v_73 ?v_58) ?v_49)) (or (or ?v_40 ?v_50) ?v_67)) (or (or ?v_34 ?v_51) ?v_57)) (or (or ?v_39 P13) ?v_52)) (or (or ?v_53 P17) ?v_54)) (or (or ?v_55 ?v_68) P16)) (or (or ?v_56 ?v_56) ?v_6)) (or (or ?v_57 ?v_10) ?v_107)) (or (or ?v_90 ?v_148) ?v_58)) (or (or ?v_34 ?v_12) ?v_59)) (or (or P8 ?v_11) ?v_60)) (or (or ?v_6 ?v_61) ?v_62)) (or (or ?v_150 ?v_113) ?v_63)) (or (or ?v_64 ?v_65) ?v_89)) (or (or ?v_25 ?v_1) ?v_3)) (or (or P27 ?v_67) ?v_22)) (or (or ?v_49 ?v_4) ?v_43)) (or (or ?v_40 ?v_53) ?v_124)) (or (or ?v_0 ?v_65) ?v_12)) (or (or P5 ?v_64) ?v_68)) (or (or ?v_62 P28) ?v_63)) (or (or ?v_41 ?v_63) ?v_69)) (or (or P0 ?v_70) P11)) (or (or P15 ?v_28) P1)) (or (or ?v_71 P5) ?v_72)) (or (or ?v_23 ?v_73) ?v_61)) (or (or ?v_74 ?v_75) ?v_56)) (or (or ?v_76 ?v_77) ?v_138)) (or (or ?v_70 ?v_79) ?v_0)) (or (or ?v_80 ?v_74) P21)) (or (or ?v_87 ?v_81) ?v_11)) (or (or ?v_51 ?v_82) ?v_70)) (or (or ?v_13 ?v_83) ?v_128)) (or (or ?v_84 ?v_9) P28)) (or (or ?v_85 ?v_86) P19)) (or (or ?v_87 P16) P21)) (or (or ?v_48 ?v_17) ?v_129)) (or (or ?v_97 ?v_96) ?v_46)) (or (or ?v_7 ?v_88) P22)) (or (or ?v_115 P10) ?v_25)) (or (or ?v_41 ?v_89) ?v_90)) (or (or ?v_5 ?v_36) ?v_91)) (or (or ?v_92 ?v_104) P25)) (or (or ?v_93 ?v_94) P27)) (or (or ?v_36 ?v_67) ?v_4)) (or (or ?v_94 ?v_60) ?v_83)) (or (or ?v_95 ?v_96) ?v_101)) (or (or ?v_68 ?v_51) ?v_85)) (or (or ?v_62 ?v_106) ?v_12)) (or (or ?v_50 ?v_12) ?v_81)) (or (or ?v_98 ?v_108) ?v_82)) (or (or ?v_24 ?v_62) ?v_96)) (or (or P24 P19) P10)) (or (or ?v_99 ?v_61) P10)) (or (or ?v_100 P27) ?v_35)) (or (or ?v_101 ?v_68) P29)) (or (or ?v_9 ?v_82) ?v_59)) (or (or ?v_79 ?v_35) ?v_103)) (or (or ?v_116 ?v_45) ?v_131)) (or (or ?v_103 ?v_89) ?v_99)) (or (or P29 P7) P1)) (or (or P19 ?v_104) ?v_24)) (or (or P15 ?v_142) ?v_79)) (or (or ?v_17 ?v_105) ?v_106)) (or (or ?v_69 ?v_110) ?v_107)) (or (or ?v_85 ?v_85) ?v_35)) (or (or ?v_56 ?v_89) ?v_74)) (or (or ?v_108 ?v_7) ?v_109)) (or (or ?v_46 ?v_3) P7)) (or (or ?v_15 ?v_14) ?v_24)) (or (or ?v_79 P4) ?v_99)) (or (or ?v_104 ?v_76) ?v_114)) (or (or ?v_88 ?v_104) ?v_102)) (or (or ?v_44 ?v_100) ?v_68)) (or (or ?v_43 ?v_23) ?v_110)) (or (or ?v_99 ?v_95) ?v_100)) (or (or ?v_63 ?v_140) ?v_46)) (or (or ?v_4 P8) ?v_55)) (or (or ?v_111 ?v_119) ?v_48)) (or (or ?v_112 P21) ?v_35)) (or (or ?v_113 ?v_62) ?v_80)) (or (or ?v_112 P22) ?v_114)) (or (or ?v_115 ?v_88) P21)) (or (or ?v_116 ?v_77) ?v_67)) (or (or ?v_101 P3) ?v_72)) (or (or ?v_93 ?v_51) ?v_7)) (or (or ?v_15 ?v_7) ?v_63)) (or (or P16 ?v_64) P23)) (or (or ?v_29 ?v_117) ?v_118)) (or (or ?v_3 ?v_75) ?v_55)) (or (or ?v_110 ?v_117) ?v_46)) (or (or ?v_118 ?v_145) ?v_117)) (or (or ?v_89 P24) P0)) (or (or ?v_2 ?v_108) P3)) (or (or ?v_24 ?v_68) ?v_119)) (or (or ?v_58 ?v_4) ?v_54)) (or (or P28 ?v_15) ?v_43)) (or (or ?v_29 ?v_59) ?v_120)) (or (or P23 ?v_110) ?v_72)) (or (or ?v_119 ?v_83) P14)) (or (or ?v_113 ?v_2) ?v_50)) (or (or ?v_58 ?v_82) ?v_121)) (or (or P28 ?v_23) ?v_67)) (or (or P24 ?v_81) ?v_133)) (or (or ?v_14 ?v_5) P24)) (or (or ?v_62 ?v_109) P8)) (or (or ?v_58 ?v_44) ?v_32)) (or (or ?v_11 ?v_70) ?v_123)) (or (or ?v_72 ?v_127) ?v_47)) (or (or ?v_124 ?v_85) ?v_81)) (or (or ?v_63 ?v_65) ?v_95)) (or (or ?v_89 ?v_119) ?v_55)) (or (or P7 ?v_46) P15)) (or (or P10 ?v_71) P19)) (or (or ?v_125 P13) ?v_68)) (or (or P1 ?v_84) ?v_43)) (or (or ?v_130 ?v_21) ?v_71)) (or (or ?v_96 ?v_126) ?v_81)) (or (or ?v_20 ?v_123) ?v_51)) (or (or ?v_98 ?v_110) ?v_114)) (or (or ?v_127 ?v_128) ?v_129)) (or (or ?v_105 ?v_31) ?v_55)) (or (or ?v_52 P27) ?v_9)) (or (or ?v_63 ?v_103) ?v_130)) (or (or P7 ?v_21) ?v_5)) (or (or ?v_53 ?v_125) ?v_131)) (or (or ?v_99 ?v_108) ?v_64)) (or (or ?v_132 ?v_12) ?v_35)) (or (or ?v_64 ?v_123) ?v_132)) (or (or P11 ?v_135) ?v_3)) (or (or ?v_114 ?v_137) P25)) (or (or ?v_102 ?v_25) ?v_22)) (or (or ?v_36 ?v_133) ?v_47)) (or (or ?v_65 ?v_43) P6)) (or (or ?v_75 ?v_1) ?v_108)) (or (or P2 ?v_39) ?v_15)) (or (or P6 ?v_120) ?v_47)) (or (or ?v_115 P18) ?v_100)) (or (or ?v_71 ?v_45) ?v_134)) (or (or ?v_21 ?v_116) ?v_71)) (or (or ?v_89 ?v_12) ?v_53)) (or (or ?v_31 ?v_124) ?v_25)) (or (or ?v_80 ?v_41) ?v_86)) (or (or ?v_135 ?v_119) ?v_103)) (or (or P20 ?v_136) ?v_96)) (or (or ?v_105 ?v_100) ?v_11)) (or (or ?v_60 ?v_85) ?v_40)) (or (or ?v_95 P11) ?v_129)) (or (or ?v_123 ?v_55) ?v_53)) (or (or ?v_137 ?v_47) ?v_92)) (or (or ?v_50 P9) ?v_38)) (or (or ?v_24 P2) ?v_14)) (or (or P4 P27) ?v_99)) (or (or ?v_93 ?v_125) ?v_86)) (or (or ?v_53 ?v_130) ?v_19)) (or (or ?v_62 ?v_49) ?v_82)) (or (or ?v_88 ?v_51) ?v_62)) (or (or ?v_1 ?v_52) ?v_126)) (or (or ?v_116 ?v_23) ?v_52)) (or (or ?v_3 ?v_34) ?v_131)) (or (or P20 ?v_90) ?v_151)) (or (or ?v_67 ?v_17) P15)) (or (or ?v_38 ?v_26) ?v_50)) (or (or ?v_25 P24) ?v_121)) (or (or ?v_43 ?v_56) ?v_108)) (or (or ?v_48 P15) ?v_135)) (or (or ?v_96 ?v_18) ?v_41)) (or (or ?v_48 ?v_139) P5)) (or (or ?v_114 ?v_116) P22)) (or (or P16 ?v_109) ?v_15)) (or (or ?v_103 ?v_98) ?v_71)) (or (or ?v_26 ?v_143) ?v_140)) (or (or ?v_3 ?v_15) ?v_66)) (or (or ?v_44 ?v_113) ?v_63)) (or (or ?v_59 ?v_40) ?v_68)) (or (or ?v_2 ?v_139) ?v_116)) (or (or ?v_113 P9) ?v_131)) (or (or ?v_108 ?v_19) ?v_57)) (or (or ?v_127 ?v_124) P28)) (or (or ?v_75 ?v_54) ?v_141)) (or (or ?v_113 ?v_104) ?v_67)) (or (or ?v_28 ?v_101) P1)) (or (or ?v_85 ?v_36) P7)) (or (or ?v_117 ?v_112) P21)) (or (or ?v_84 ?v_17) ?v_85)) (or (or ?v_10 ?v_130) ?v_67)) (or (or ?v_115 ?v_134) P24)) (or (or ?v_62 ?v_15) ?v_38)) (or (or ?v_53 ?v_142) P9)) (or (or ?v_88 ?v_142) ?v_69)) (or (or P18 ?v_90) ?v_8)) (or (or P3 ?v_22) ?v_115)) (or (or ?v_2 ?v_3) ?v_127)) (or (or ?v_47 ?v_113) ?v_142)) (or (or ?v_38 ?v_79) ?v_77)) (or (or ?v_10 ?v_100) ?v_121)) (or (or ?v_35 ?v_68) ?v_117)) (or (or ?v_26 ?v_100) P28)) (or (or ?v_112 ?v_35) ?v_143)) (or (or ?v_126 ?v_82) P20)) (or (or P7 P19) ?v_14)) (or (or ?v_38 ?v_32) ?v_44)) (or (or ?v_53 ?v_106) ?v_9)) (or (or ?v_60 ?v_56) ?v_59)) (or (or P19 ?v_39) ?v_133)) (or (or ?v_21 ?v_31) ?v_18)) (or (or ?v_67 ?v_147) ?v_56)) (or (or P29 P22) ?v_125)) (or (or ?v_86 ?v_66) P2)) (or (or ?v_144 ?v_133) ?v_93)) (or (or ?v_47 ?v_123) ?v_134)) (or (or ?v_25 ?v_130) ?v_80)) (or (or ?v_141 ?v_138) ?v_71)) (or (or ?v_126 ?v_149) ?v_56)) (or (or P7 ?v_88) ?v_97)) (or (or ?v_98 P4) ?v_82)) (or (or ?v_2 ?v_113) P5)) (or (or ?v_111 ?v_97) ?v_121)) (or (or P2 ?v_81) ?v_58)) (or (or ?v_1 ?v_109) ?v_92)) (or (or P12 ?v_39) ?v_58)) (or (or ?v_47 P28) P8)) (or (or P8 ?v_22) ?v_13)) (or (or ?v_109 ?v_22) ?v_63)) (or (or ?v_61 P24) P15)) (or (or ?v_139 ?v_132) ?v_145)) (or (or P15 ?v_135) ?v_129)) (or (or ?v_45 ?v_93) P5)) (or (or ?v_2 ?v_73) ?v_18)) (or (or ?v_47 P13) ?v_40)) (or (or ?v_94 ?v_51) ?v_146)) (or (or ?v_66 ?v_147) ?v_60)) (or (or ?v_102 ?v_68) ?v_98)) (or (or ?v_84 ?v_29) P0)) (or (or ?v_144 ?v_110) ?v_135)) (or (or ?v_148 ?v_0) ?v_108)) (or (or P0 ?v_119) ?v_4)) (or (or ?v_129 ?v_94) P17)) (or (or ?v_132 ?v_73) ?v_149)) (or (or P24 ?v_19) ?v_91)) (or (or ?v_80 ?v_109) ?v_137)) (or (or ?v_114 ?v_146) ?v_19)) (or (or P8 ?v_42) ?v_1)) (or (or P10 ?v_28) ?v_104)) (or (or ?v_6 ?v_41) ?v_33)) (or (or P5 ?v_65) ?v_9)) (or (or ?v_41 ?v_102) ?v_113)) (or (or ?v_125 ?v_98) ?v_26)) (or (or ?v_84 ?v_18) ?v_150)) (or (or ?v_3 ?v_11) ?v_9)) (or (or ?v_36 ?v_26) ?v_104)) (or (or ?v_91 ?v_136) ?v_108)) (or (or ?v_123 ?v_94) P7)) (or (or ?v_52 ?v_151) ?v_0)) (or (or ?v_98 ?v_25) ?v_130)) (or (or ?v_62 ?v_69) ?v_2)) (or (or P15 ?v_147) ?v_96)) (or (or ?v_92 ?v_65) ?v_116)) (or (or ?v_79 ?v_145) ?v_69)) (or (or ?v_10 ?v_152) ?v_54)) (or (or ?v_21 ?v_55) ?v_41)) (or (or P12 P15) ?v_68)) (or (or ?v_81 ?v_142) P14)) (or (or ?v_113 ?v_84) P5)) (or (or ?v_131 ?v_65) ?v_120)) (or (or ?v_71 ?v_110) ?v_65)) (or (or ?v_1 ?v_11) P6)) (or (or ?v_17 ?v_48) ?v_18)) (or (or ?v_135 ?v_43) ?v_95)) (or (or P17 ?v_94) ?v_9)) (or (or ?v_120 P9) ?v_88)) (or (or ?v_152 ?v_108) P2)) (or (or ?v_109 ?v_28) ?v_57)) (or (or ?v_75 P27) ?v_140)) (or (or ?v_18 ?v_120) ?v_104)) (or (or ?v_100 ?v_129) ?v_114)) (or (or ?v_101 ?v_41) ?v_56)) (or (or ?v_106 ?v_137) ?v_62)) (or (or ?v_0 ?v_46) ?v_90)) (or (or P4 ?v_12) ?v_92)) (or (or P17 ?v_93) ?v_73)) (or (or ?v_24 ?v_43) ?v_109)) (or (or ?v_30 ?v_100) ?v_70)) (or (or P5 ?v_46) ?v_41)) (or (or ?v_91 ?v_40) ?v_50)) (or (or ?v_136 ?v_118) ?v_99)) (or (or ?v_52 ?v_47) ?v_29)) (or (or ?v_73 ?v_71) ?v_0)) (or (or ?v_144 ?v_82) ?v_150)) (or (or P3 ?v_20) P2)) (or (or P4 ?v_148) ?v_58)) (or (or ?v_0 ?v_49) ?v_108)) (or (or ?v_146 ?v_134) ?v_109)) (or (or ?v_20 ?v_33) ?v_150)) (or (or ?v_60 P21) ?v_12)) (or (or ?v_121 P16) ?v_127)) (or (or ?v_55 ?v_72) ?v_70)) (or (or ?v_42 ?v_94) ?v_58)) (or (or ?v_106 ?v_34) ?v_89)) (or (or ?v_67 P23) ?v_80)) (or (or ?v_57 ?v_100) ?v_86)) (or (or ?v_118 ?v_28) ?v_49)) (or (or ?v_117 ?v_23) ?v_91)) (or (or ?v_65 ?v_32) ?v_90)) (or (or ?v_85 ?v_148) ?v_73)) (or (or P18 P13) ?v_11)) (or (or ?v_64 ?v_66) ?v_81)) (or (or ?v_147 P29) ?v_42)) (or (or ?v_43 ?v_77) ?v_118)))))))))))))))))))))))))
(check-sat)
(exit)
